-99 000 000 000 000 000 000 000 -99 -99 -99 -99 000 000 000 -99 001 005 008 -99 000 000 000 000 000 000 000 000 -99 -99 -99
-99 000 000 000 000 000 000 -99 -99 -99 -99 -99 -99 000 000 000 -99 002 006 -99 000 000 000 000 000 -99 000 000 -99 -99 -99
000 000 000 -99 000 000 000 -99 -99 -99 -99 -99 -99 -99 000 000 000 002 004 000 000 000 000 000 000 -99 000 -99 -99 -99 -99
000 -99 000 000 000 000 000 -99 000 -99 -99 000 -99 -99 -99 000 000 001 -99 000 000 000 000 000 000 000 000 -99 -99 -99 -99
000 000 000 000 000 000 000 000 000 -99 -99 000 000 -99 -99 -99 -99 -99 -99 -99 000 000 000 000 000 -99 -99 -99 -99 -99 -99
-99 000 000 000 000 000 000 000 000 -99 -99 -99 000 000 000 -99 -99 -99 -99 -99 000 000 000 000 000 -99 -99 -99 -99 -99 -99
000 000 000 000 000 000 000 000 000 -99 -99 -99 000 000 000 000 -99 -99 -99 -99 000 000 000 000 000 -99 -99 -99 -99 -99 -99
000 000 000 000 000 000 000 000 -99 000 -99 -99 -99 000 000 -99 000 000 -99 -99 -99 000 000 000 000 -99 -99 -99 -99 -99 -99
000 000 000 000 000 000 000 000 -99 000 000 -99 -99 -99 -99 000 000 000 -99 000 000 000 000 000 000 -99 -99 -99 -99 -99 -99
000 000 000 000 000 000 000 000 000 000 000 000 -99 -99 000 000 000 000 000 000 000 000 000 -99 000 000 000 000 -99 000 -99
000 000 000 000 000 -99 000 000 000 000 000 000 -99 -99 000 000 000 000 000 000 000 000 000 -99 000 000 000 000 000 000 000
000 000 000 -99 000 000 000 000 000 000 000 000 000 -99 000 000 000 000 000 000 000 000 -99 000 000 -99 000 000 000 000 000
000 000 000 000 000 000 000 000 -99 000 000 000 000 000 -99 000 000 000 000 000 000 000 -99 -99 000 000 000 000 000 000 000
000 000 000 000 000 000 000 000 -99 -99 -99 000 000 -99 -99 000 000 000 000 000 000 000 -99 000 000 000 000 000 -99 -99 000
000 000 000 000 000 000 000 -99 -99 -99 -99 -99 -99 000 -99 000 000 000 000 000 000 000 -99 000 000 000 000 000 -99 000 000
000 000 000 000 000 000 000 000 -99 -99 -99 -99 -99 000 -99 000 000 000 000 000 000 000 000 000 000 000 000 000 -99 000 000
000 000 000 000 000 000 000 000 -99 -99 -99 -99 -99 000 000 000 000 000 000 000 000 000 000 000 000 000 000 000 -99 -99 000
000 000 000 -99 000 000 000 000 000 -99 -99 -99 -99 000 000 000 000 000 000 000 000 000 000 000 000 000 000 000 -99 -99 -99
000 000 000 000 -99 -99 000 000 000 -99 -99 -99 -99 000 000 000 000 000 000 000 000 000 000 000 000 000 000 000 -99 -99 -99
000 000 000 000 000 -99 -99 000 000 -99 000 000 -99 000 000 -99 000 000 000 000 000 000 000 -99 000 000 001 -99 -99 -99 -99
000 000 000 000 000 -99 -99 000 000 000 000 -99 -99 -99 000 -99 000 000 000 000 000 000 000 -99 000 -99 001 -99 -99 -99 -99
000 000 000 000 000 000 -99 000 000 000 -99 -99 -99 -99 000 000 000 000 000 000 000 000 000 -99 000 001 -99 -99 -99 -99 -99
000 000 000 000 000 000 000 000 000 000 -99 -99 -99 000 000 000 000 000 000 000 000 000 000 -99 001 001 -99 -99 -99 -99 001
000 000 000 000 000 000 000 000 000 000 -99 -99 -99 000 000 000 000 000 000 000 000 000 000 -99 001 -99 -99 -99 -99 -99 001
000 000 000 000 000 000 000 000 000 -99 -99 -99 -99 000 000 000 000 000 000 000 000 000 000 -99 -99 -99 -99 -99 -99 001 001
000 000 000 000 000 000 000 -99 000 -99 -99 -99 -99 000 000 000 000 000 000 000 000 000 000 -99 -99 -99 -99 -99 -99 002 001
000 000 000 000 000 000 000 000 000 000 -99 -99 -99 -99 000 000 000 000 000 000 000 000 000 -99 -99 -99 -99 -99 -99 002 002
000 000 000 -99 000 000 000 000 000 000 -99 -99 -99 000 000 000 000 000 000 000 000 000 000 -99 -99 -99 -99 001 001 002 002
000 000 000 -99 000 000 000 000 -99 -99 -99 -99 -99 000 000 000 000 000 000 000 000 000 -99 001 001 001 001 001 002 002 001
000 000 000 000 000 000 000 000 -99 -99 -99 -99 -99 000 000 000 000 000 000 -99 000 000 -99 001 001 001 002 001 002 003 002
000 000 000 -99 000 000 000 000 000 -99 -99 -99 -99 000 000 000 000 000 000 000 000 000 -99 000 001 001 002 001 002 004 004
000 000 000 000 000 -99 000 000 000 000 000 -99 -99 000 000 000 000 000 000 -99 000 000 000 000 001 001 001 001 001 005 004
000 000 000 000 000 000 000 000 000 000 000 000 -99 -99 000 000 000 000 000 -99 -99 000 000 000 001 001 001 000 002 004 003
000 000 000 000 000 000 000 000 000 000 000 000 -99 000 000 000 000 000 000 000 000 000 000 000 000 002 001 001 001 003 002
000 000 000 000 000 000 000 000 000 000 000 000 000 000 000 000 000 000 000 000 000 000 000 000 000 001 001 001 001 003 001
000 000 000 000 000 000 000 000 000 000 000 000 000 000 000 000 000 000 000 000 000 000 000 000 000 001 001 001 001 001 001
000 000 -99 000 000 000 000 000 000 000 000 000 000 000 000 000 000 000 000 001 001 000 000 000 000 001 001 000 001 000 001
000 -99 -99 000 000 -99 000 000 000 000 000 000 000 000 000 000 000 000 000 000 001 001 000 000 000 001 001 001 001 000 001
000 000 000 000 000 000 -99 -99 000 000 000 000 000 000 000 000 000 000 000 000 001 001 000 000 000 000 001 001 000 000 001
000 000 000 000 000 000 -99 -99 -99 000 000 000 000 000 000 000 000 000 000 000 000 002 001 000 000 000 000 001 001 000 000
000 000 000 000 000 000 -99 -99 -99 000 000 000 000 001 000 000 000 000 000 000 001 002 001 000 000 000 000 001 001 000 000
000 000 000 000 000 000 000 -99 -99 000 000 000 000 000 000 000 000 000 000 000 000 001 001 000 000 000 001 001 001 000 000
000 000 000 000 000 000 000 000 000 000 000 000 000 001 001 000 000 000 000 000 000 000 000 001 000 000 001 001 001 001 000
000 -99 000 000 -99 000 000 000 000 000 000 000 001 001 001 001 000 000 000 000 000 000 000 001 000 000 001 001 001 001 000
000 000 -99 -99 -99 000 000 000 000 000 001 001 001 002 001 001 000 000 000 000 000 000 000 000 001 000 000 001 001 001 001
000 -99 -99 000 -99 000 000 000 000 000 001 002 002 001 002 001 000 000 000 000 000 000 000 000 000 000 000 001 001 001 002
-99 -99 -99 000 -99 000 000 000 000 000 001 002 002 002 002 002 001 000 000 000 000 000 000 000 000 000 000 000 001 001 001
-99 -99 -99 -99 -99 -99 000 000 000 000 001 001 002 002 003 001 001 000 000 000 000 000 000 000 000 000 000 000 000 001 000
-99 -99 -99 -99 -99 -99 000 000 000 000 000 001 002 002 001 001 000 000 000 000 000 000 000 000 000 000 -99 000 000 000 000
-99 -99 -99 -99 -99 -99 -99 000 000 000 000 000 001 002 001 001 000 000 000 000 000 000 -99 -99 -99 -99 -99 000 000 000 000
-99 -99 -99 -99 -99 -99 000 000 000 000 000 000 001 002 001 001 000 000 000 000 000 000 000 000 -99 -99 -99 000 000 000 000
-99 -99 -99 -99 000 000 000 000 000 000 000 000 001 002 002 001 001 000 000 000 000 000 000 000 000 -99 -99 -99 000 000 000
-99 -99 -99 000 000 000 000 000 000 000 000 000 001 001 001 001 000 001 000 000 000 000 000 000 000 -99 000 000 000 000 000
-99 -99 000 000 000 000 000 000 000 000 000 000 000 001 001 001 001 000 001 001 001 000 000 000 000 000 000 000 000 000 000
-99 -99 000 000 000 000 000 001 001 001 001 000 000 000 000 001 000 001 001 001 001 001 001 000 000 000 000 002 001 001 002
